BAYES
144
2 2 2 2 2 2 2 2 2 2 2 2 2 2 2 2 2 2 2 2 2 2 2 2 2 2 2 2 2 2 2 2 2 2 2 2 2 2 2 2 2 2 2 2 2 2 2 2 2 2 2 2 2 2 2 2 2 2 2 2 2 2 2 2 2 2 2 2 2 2 2 2 2 2 2 2 2 2 2 2 2 2 2 2 2 2 2 2 2 2 2 2 2 2 2 2 2 2 2 2 2 2 2 2 2 2 2 2 2 2 2 2 2 2 2 2 2 2 2 2 2 2 2 2 2 2 2 2 2 2 2 2 2 2 2 2 2 2 2 2 2 2 2 2
144
3 12 1 0
3 13 2 1
3 14 3 2
3 15 4 3
3 16 5 4
3 17 6 5
3 18 7 6
3 19 8 7
3 20 9 8
3 21 10 9
3 22 11 10
2 23 11
3 24 13 12
3 25 14 13
3 26 15 14
3 27 16 15
3 28 17 16
3 29 18 17
3 30 19 18
3 31 20 19
3 32 21 20
3 33 22 21
3 34 23 22
2 35 23
3 36 25 24
3 37 26 25
3 38 27 26
3 39 28 27
3 40 29 28
3 41 30 29
3 42 31 30
3 43 32 31
3 44 33 32
3 45 34 33
3 46 35 34
2 47 35
3 48 37 36
3 49 38 37
3 50 39 38
3 51 40 39
3 52 41 40
3 53 42 41
3 54 43 42
3 55 44 43
3 56 45 44
3 57 46 45
3 58 47 46
2 59 47
3 60 49 48
3 61 50 49
3 62 51 50
3 63 52 51
3 64 53 52
3 65 54 53
3 66 55 54
3 67 56 55
3 68 57 56
3 69 58 57
3 70 59 58
2 71 59
3 72 61 60
3 73 62 61
3 74 63 62
3 75 64 63
3 76 65 64
3 77 66 65
3 78 67 66
3 79 68 67
3 80 69 68
3 81 70 69
3 82 71 70
2 83 71
3 84 73 72
3 85 74 73
3 86 75 74
3 87 76 75
3 88 77 76
3 89 78 77
3 90 79 78
3 91 80 79
3 92 81 80
3 93 82 81
3 94 83 82
2 95 83
3 96 85 84
3 97 86 85
3 98 87 86
3 99 88 87
3 100 89 88
3 101 90 89
3 102 91 90
3 103 92 91
3 104 93 92
3 105 94 93
3 106 95 94
2 107 95
3 108 97 96
3 109 98 97
3 110 99 98
3 111 100 99
3 112 101 100
3 113 102 101
3 114 103 102
3 115 104 103
3 116 105 104
3 117 106 105
3 118 107 106
2 119 107
3 120 109 108
3 121 110 109
3 122 111 110
3 123 112 111
3 124 113 112
3 125 114 113
3 126 115 114
3 127 116 115
3 128 117 116
3 129 118 117
3 130 119 118
2 131 119
3 132 121 120
3 133 122 121
3 134 123 122
3 135 124 123
3 136 125 124
3 137 126 125
3 138 127 126
3 139 128 127
3 140 129 128
3 141 130 129
3 142 131 130
2 143 131
2 133 132
2 134 133
2 135 134
2 136 135
2 137 136
2 138 137
2 139 138
2 140 139
2 141 140
2 142 141
2 143 142
1  143
8
0 1 1 0 0 1 0 1
8
0 1 0 1 1 0 1 0
8
0 1 1 0 0 1 1 0
8
0 1 0 1 0 1 0 1
8
0 1 1 0 1 0 1 0
8
0 1 0 1 0 1 1 0
8
0 1 1 0 0 1 0 1
8
0.6489578436532588 0.3510421563467412 0.9545791447138867 0.045420855286113324 0.10310011723559413 0.8968998827644059 0.29891290615896426 0.7010870938410357
8
1 0 1 0 1 0 1 0
8
0 1 1 0 0 1 0 1
8
0.39117875614818154 0.6088212438518185 0.7139111717517185 0.2860888282482816 0.13268964199682842 0.8673103580031716 0.4052464577729784 0.5947535422270216
4
1 0 0 1
8
0 1 0 1 1 0 0 1
8
0.48733786831334275 0.5126621316866572 0.6261339795088756 0.37386602049112444 0.5105250862926971 0.48947491370730284 0.9324914227648649 0.0675085772351351
8
0.2897263616678541 0.7102736383321459 0.546611813520255 0.4533881864797451 0.5033411956138889 0.49665880438611115 0.8490695187594566 0.1509304812405435
8
1 0 1 0 1 0 0 1
8
1 0 1 0 1 0 0 1
8
0 1 0 1 0 1 0 1
8
1 0 0 1 0 1 1 0
8
0 1 1 0 0 1 1 0
8
0 1 0 1 0 1 0 1
8
0 1 1 0 0 1 0 1
8
0 1 0 1 1 0 1 0
4
0.5872935012443198 0.41270649875568016 0.41184514217477103 0.5881548578252289
8
1 0 1 0 1 0 1 0
8
0 1 0 1 1 0 0 1
8
0 1 1 0 0 1 1 0
8
0.8042577897150518 0.1957422102849482 0.5799212838159329 0.42007871618406706 0.5888984967112085 0.41110150328879147 0.5110416363115108 0.4889583636884891
8
1 0 1 0 0 1 1 0
8
1 0 1 0 0 1 0 1
8
0 1 1 0 1 0 0 1
8
0 1 1 0 0 1 0 1
8
0.09114954756830902 0.9088504524316909 0.6677512269299801 0.33224877307001993 0.4196112757001502 0.5803887242998498 0.6319034109147204 0.36809658908527965
8
1 0 0 1 1 0 1 0
8
1 0 1 0 1 0 1 0
4
0 1 1 0
8
1 0 1 0 1 0 0 1
8
0.3988684776868773 0.6011315223131227 0.10846784296438311 0.891532157035617 0.46579835986994333 0.5342016401300567 0.49253200972460764 0.5074679902753925
8
0 1 1 0 0 1 1 0
8
1 0 1 0 1 0 1 0
8
0 1 0 1 0 1 1 0
8
0 1 1 0 0 1 1 0
8
0 1 0 1 0 1 1 0
8
0 1 0 1 1 0 1 0
8
1 0 1 0 1 0 1 0
8
0.6932813230852344 0.3067186769147657 0.5063062063789017 0.49369379362109833 0.019575718461746407 0.9804242815382536 0.05249896981273482 0.9475010301872652
8
0 1 1 0 0 1 1 0
4
1 0 1 0
8
1 0 1 0 0 1 1 0
8
1 0 1 0 0 1 0 1
8
1 0 0 1 1 0 1 0
8
0 1 1 0 0 1 1 0
8
0 1 0 1 0 1 0 1
8
1 0 1 0 0 1 0 1
8
1 0 0 1 0 1 0 1
8
1 0 1 0 0 1 0 1
8
0 1 1 0 1 0 0 1
8
0 1 0 1 1 0 1 0
8
0 1 0 1 0 1 1 0
4
0 1 0 1
8
0 1 0 1 0 1 1 0
8
0 1 1 0 1 0 1 0
8
0.481126031859132 0.518873968140868 0.686205356814923 0.3137946431850771 0.5719081836281276 0.4280918163718723 0.400868355444069 0.599131644555931
8
1 0 1 0 0 1 0 1
8
1 0 0 1 1 0 1 0
8
0 1 1 0 1 0 0 1
8
0.744041084594176 0.2559589154058241 0.6634380222140769 0.3365619777859231 0.47212690199197127 0.5278730980080287 0.7538654100729526 0.2461345899270475
8
1 0 0 1 0 1 1 0
8
1 0 1 0 1 0 0 1
8
1 0 0 1 1 0 1 0
8
1 0 0 1 1 0 0 1
4
0 1 0 1
8
1 0 1 0 0 1 0 1
8
0.3986085720326808 0.6013914279673191 0.46515815638456526 0.5348418436154349 0.6853151470798559 0.3146848529201441 0.09807149982157479 0.9019285001784252
8
1 0 1 0 1 0 1 0
8
1 0 0 1 0 1 0 1
8
1 0 1 0 0 1 1 0
8
0 1 1 0 1 0 0 1
8
0 1 0 1 0 1 0 1
8
1 0 0 1 0 1 1 0
8
0 1 1 0 0 1 0 1
8
1 0 1 0 1 0 0 1
8
0 1 0 1 0 1 1 0
4
1 0 0 1
8
1 0 1 0 0 1 0 1
8
1 0 0 1 1 0 0 1
8
1 0 0 1 1 0 0 1
8
0 1 1 0 0 1 0 1
8
1 0 1 0 1 0 0 1
8
1 0 0 1 1 0 1 0
8
1 0 1 0 0 1 1 0
8
0 1 0 1 1 0 0 1
8
1 0 0 1 1 0 1 0
8
1 0 1 0 0 1 0 1
8
0.4065857305966607 0.5934142694033393 0.6883661986871724 0.3116338013128277 0.6971161773971613 0.3028838226028387 0.6049992585624985 0.39500074143750147
4
0 1 0 1
8
0 1 1 0 1 0 1 0
8
1 0 0 1 0 1 1 0
8
1 0 0 1 0 1 1 0
8
0 1 0 1 0 1 0 1
8
0 1 0 1 1 0 0 1
8
1 0 1 0 1 0 1 0
8
1 0 0 1 0 1 1 0
8
1 0 0 1 1 0 1 0
8
1 0 1 0 1 0 1 0
8
0 1 0 1 0 1 1 0
8
0 1 0 1 0 1 1 0
4
1 0 1 0
8
1 0 1 0 0 1 0 1
8
1 0 0 1 0 1 0 1
8
1 0 1 0 1 0 1 0
8
0 1 0 1 1 0 1 0
8
0 1 0 1 1 0 1 0
8
1 0 0 1 1 0 0 1
8
0 1 0 1 0 1 1 0
8
1 0 0 1 1 0 0 1
8
0 1 0 1 0 1 0 1
8
0 1 1 0 0 1 1 0
8
0 1 0 1 1 0 0 1
4
0 1 0 1
8
1 0 1 0 0 1 1 0
8
1 0 0 1 1 0 0 1
8
1 0 1 0 0 1 0 1
8
0 1 0 1 1 0 0 1
8
0.4562531349052218 0.5437468650947782 0.6459458657309981 0.35405413426900195 0.48941209918321954 0.5105879008167804 0.694813659974552 0.3051863400254479
8
0 1 0 1 0 1 1 0
8
0 1 0 1 0 1 0 1
8
0 1 1 0 0 1 0 1
8
0 1 1 0 0 1 1 0
8
0 1 1 0 0 1 0 1
8
1 0 0 1 1 0 0 1
4
1 0 1 0
4
0 1 1 0
4
1 0 0 1
4
0 1 0 1
4
1 0 1 0
4
0 1 1 0
4
0 1 0 1
4
0 1 1 0
4
1 0 0 1
4
1 0 0 1
4
1 0 0 1
4
0.324259544283249 0.675740455716751 0.8914713488581832 0.10852865114181669
2
1 0
